output ([(((("\n"++problem_name)++"\n")++"L:")++show(L))++"\n"]++[if problem[i,j]==0 then "*" else show(letters[fix(L[problem[i,j]])]) endif++if j==cols then "\n" else "" endif | i in 1..rows, j in 1..cols, ])++["\n"];
int: rows = 23;
int: cols = 23;
array [1..rows,1..cols] of int: problem = [|1,2,3,4,5,6,0,7,8,9,10,11,0,12,13,14,15,0,16,17,18,19,20|21,22,23,24,25,26,0,27,28,29,30,31,0,32,33,34,35,0,36,37,38,39,40|41,42,43,44,45,46,47,48,49,50,51,52,0,53,54,55,56,57,58,59,60,61,62|63,64,65,66,67,68,69,0,70,71,72,73,74,0,75,76,77,78,0,79,80,81,82|83,84,85,0,0,86,87,88,0,0,0,89,90,91,92,93,94,95,0,96,97,98,99|0,0,0,100,101,102,103,104,105,106,0,107,108,109,110,111,0,0,112,113,114,115,116|117,118,119,120,121,122,0,123,124,125,126,0,127,128,129,0,130,131,132,133,0,0,0|134,135,136,137,138,139,0,140,141,142,143,144,0,145,146,147,148,149,150,0,151,152,153|154,155,156,157,0,158,159,160,161,162,163,164,165,0,166,167,168,169,0,170,171,172,173|174,175,176,177,178,179,180,0,0,181,182,183,184,185,186,187,188,189,0,190,191,192,193|194,195,196,0,197,198,199,200,201,0,0,202,203,204,205,206,0,207,208,209,210,211,212|0,0,213,214,215,0,216,217,218,219,220,0,221,222,223,224,225,0,226,227,228,0,0|229,230,231,232,233,234,0,235,236,237,238,239,0,0,240,241,242,243,244,0,245,246,247|248,249,250,251,0,252,253,254,255,256,257,258,259,260,0,0,261,262,263,264,265,266,267|268,269,270,271,0,272,273,274,275,0,276,277,278,279,280,281,282,283,0,284,285,286,287|288,289,290,0,291,292,293,294,295,296,0,297,298,299,300,301,0,302,303,304,305,306,307|0,0,0,308,309,310,311,0,312,313,314,0,315,316,317,318,0,319,320,321,322,323,324|325,326,327,328,329,0,0,330,331,332,333,334,0,335,336,337,338,339,340,341,0,0,0|342,343,344,345,0,346,347,348,349,350,351,352,0,0,0,353,354,355,0,0,356,357,358|359,360,361,362,0,363,364,365,366,0,367,368,369,370,371,0,372,373,374,375,376,377,378|379,380,381,382,383,384,385,386,387,388,0,389,390,391,392,393,394,395,396,397,398,399,400|401,402,403,404,405,0,406,407,408,409,0,410,411,412,413,414,0,415,416,417,418,419,420|421,422,423,424,425,0,426,427,428,429,0,430,431,432,433,434,0,435,436,437,438,439,440|];
int: num_letters = 26;
array [1..num_letters] of string: letters = ["a","b","c","d","e","f","g","h","i","j","k","l","m","n","o","p","q","r","s","t","u","v","w","x","y","z"];
int: N = 440;
array [0..N] of int: L;
string: problem_name = "23.03, 23 x 23";
